100
150
100
99
99
97
96
95
95
94
94
94
93
87
86
85
85
85
85
85
85
85
84
84
83
83
82
81
81
80
80
80
80
80
80
79
79
78
77
77
76
76
75
75
75
74
72
70
69
68
68
67
67
65
64
64
64
63
62
60
59
59
59
58
58
58
57
57
56
56
54
54
52
51
51
48
48
48
47
47
47
46
45
44
44
42
41
41
39
38
38
37
36
36
36
35
34
33
33
33
32
31
